"CertSDP SDPA example: PSD plus diagonal blocks with decimals"
3 = mDIM
2 = nBLOCK
2 -2 = bLOCKsTRUCT
0.5, -1.25, 2e-2
0 1 1 1 -1.5
0 1 2 2 -2.5
0 2 1 1 -3.0
0 2 2 2 -4.00
1 1 1 1 0.25
1 1 1 2 -0.125
1 2 1 1 1e-1
2 1 2 2 3.5
2 2 2 2 -2e-1
3 1 1 2 6.25e-2
3 2 1 1 7.5
